
Gurobi 5.6.3 (linux64) logging started Mon Jul 27 13:38:26 2015


Gurobi 5.6.3 (linux64) logging started Mon Jul 27 13:39:08 2015


Gurobi 5.6.3 (linux64) logging started Mon Jul 27 13:39:43 2015


Gurobi 5.6.3 (linux64) logging started Mon Jul 27 13:41:56 2015


Gurobi 5.6.3 (linux64) logging started Mon Jul 27 13:43:34 2015


Gurobi 5.6.3 (linux64) logging started Mon Jul 27 13:45:32 2015


Gurobi 5.6.3 (linux64) logging started Mon Jul 27 13:45:58 2015


Gurobi 5.6.3 (linux64) logging started Mon Jul 27 13:46:21 2015


Gurobi 5.6.3 (linux64) logging started Mon Jul 27 13:51:57 2015


Gurobi 5.6.3 (linux64) logging started Mon Jul 27 13:57:27 2015


Gurobi 5.6.3 (linux64) logging started Mon Jul 27 13:59:40 2015


Gurobi 5.6.3 (linux64) logging started Mon Jul 27 14:01:17 2015


Gurobi 5.6.3 (linux64) logging started Mon Jul 27 14:02:35 2015


Gurobi 5.6.3 (linux64) logging started Mon Jul 27 14:04:12 2015

